problem_generation/data/GISP/train/er_n=64_m=1157_p=0.60_SET2_setparam=100.00_alpha=0.50_115.lp
maximize
OBJ:100x0 + 100x1 + 100x2 + 100x3 + 100x4 + 100x5 + 100x6 + 100x7 + 100x8 + 100x9 + 100x10 + 100x11 + 100x12 + 100x13 + 100x14 + 100x15 + 100x16 + 100x17 + 100x18 + 100x19 + 100x20 + 100x21 + 100x22 + 100x23 + 100x24 + 100x25 + 100x26 + 100x27 + 100x28 + 100x29 + 100x30 + 100x31 + 100x32 + 100x33 + 100x34 + 100x35 + 100x36 + 100x37 + 100x38 + 100x39 + 100x40 + 100x41 + 100x42 + 100x43 + 100x44 + 100x45 + 100x46 + 100x47 + 100x48 + 100x49 + 100x50 + 100x51 + 100x52 + 100x53 + 100x54 + 100x55 + 100x56 + 100x57 + 100x58 + 100x59 + 100x60 + 100x61 + 100x62 + 100x63 - y15_21 - y7_17 - y47_53 - y26_30 - y47_62 - y26_39 - y28_58 - y18_35 - y18_44 - y40_41 - y8_18 - y21_37 - y6_48 - y29_59 - y21_55 - y2_32 - y25_43 - y25_61 - y43_60 - y14_42 - y47_48 - y15_25 - y17_44 - y18_21 - y28_53 - y18_30 - y28_62 - y9_58 - y6_34 - y40_45 - y21_41 - y29_54 - y21_50 - y40_63 - y21_59 - y10_31 - y25_29 - y10_40 - y33_42 - y25_38 - y10_58 - y14_19 - y32_55 - y13_51 - y14_28 - y14_37 - y55_56 - y36_52 - y36_61 - y9_53 - y9_62 - y48_53 - y21_45 - y2_22 - y25_33 - y12_63 - y3_14 - y32_50 - y24_46 - y35_46 - y43_59 - y28_34 - y7_11 - y55_60 - y28_43 - y5_59 - y17_61 - y29_35 - y40_44 - y21_40 - y6_51 - y2_8 - y39_57 - y20_53 - y10_30 - y20_62 - y32_45 - y51_58 - y35_41 - y14_18 - y16_37 - y32_54 - y13_50 - y17_20 - y17_29 - y17_47 - y5_54 - y9_61 - y27_60 - y50_62 - y61_62 - y21_35 - y39_43 - y2_3 - y39_61 - y31_57 - y23_53 - y23_62 - y3_4 - y4_58 - y32_49 - y24_54 - y35_54 - y35_63 - y28_33 - y28_42 - y9_38 - y6_14 - y27_55 - y42_53 - y19_60 - y20_34 - y31_34 - y2_7 - y23_39 - y20_61 - y4_44 - y13_22 - y4_53 - y32_35 - y32_44 - y13_40 - y24_40 - y43_53 - y24_49 - y35_49 - y9_24 - y5_35 - y50_52 - y8_55 - y20_29 - y0_60 - y31_38 - y23_34 - y39_60 - y12_52 - y23_52 - y12_61 - y1_24 - y53_62 - y16_22 - y34_58 - y24_35 - y16_49 - y38_46 - y5_21 - y57_59 - y9_19 - y38_55 - y49_55 - y9_28 - y15_62 - y5_39 - y8_41 - y27_54 - y8_59 - y20_24 - y23_29 - y31_42 - y4_25 - y12_47 - y12_56 - y45_53 - y24_30 - y45_62 - y56_62 - y5_16 - y26_48 - y38_50 - y49_50 - y7_44 - y15_57 - y49_59 - y8_27 - y27_40 - y8_36 - y50_51 - y8_45 - y27_58 - y11_41 - y19_54 - y30_54 - y19_63 - y30_63 - y4_29 - y23_42 - y34_39 - y34_48 - y45_48 - y53_61 - y22_55 - y45_57 - y16_30 - y14_60 - y37_62 - y46_49 - y49_54 - y7_48 - y15_61 - y38_63 - y18_57 - y19_31 - y30_31 - y11_27 - y19_40 - y11_36 - y11_54 - y12_19 - y4_24 - y23_37 - y25_56 - y4_33 - y37_39 - y34_52 - y15_20 - y15_29 - y18_34 - y0_4 - y27_30 - y18_61 - y0_22 - y8_35 - y11_31 - y33_46 - y10_53 - y25_51 - y1_13 - y3_41 - y37_43 - y3_59 - y37_61 - y18_20 - y7_38 - y18_38 - y40_53 - y8_30 - y29_62 - y21_58 - y0_35 - y41_45 - y44_50 - y52_63 - y25_46 - y44_59 - y3_27 - y14_36 - y22_49 - y34_51 - y14_45 - y37_47 - y47_60 - y26_46 - y18_42 - y0_3 - y29_48 - y40_48 - y21_53 - y21_62 - y10_34 - y25_32 - y4_9 - y25_41 - y2_48 - y22_26 - y25_59 - y14_22 - y22_35 - y34_37 - y18_28 - y18_37 - y8_11 - y29_43 - y40_43 - y40_61 - y41_44 - y2_25 - y25_27 - y2_34 - y25_45 - y3_8 - y3_17 - y14_17 - y22_30 - y32_53 - y14_26 - y32_62 - y3_35 - y16_63 - y36_41 - y15_18 - y36_50 - y47_50 - y7_23 - y21_25 - y0_2 - y6_54 - y54_58 - y10_33 - y2_29 - y33_44 - y25_40 - y51_52 - y3_12 - y3_30 - y14_30 - y17_32 - y28_32 - y9_37 - y17_50 - y29_42 - y40_42 - y10_28 - y54_62 - y10_37 - y25_35 - y32_34 - y51_56 - y13_39 - y14_16 - y32_52 - y43_52 - y13_48 - y24_48 - y3_25 - y43_61 - y13_57 - y24_57 - y35_57 - y17_36 - y47_49 - y28_45 - y6_8 - y47_58 - y5_52 - y28_54 - y28_63 - y21_24 - y39_50 - y31_46 - y10_23 - y31_55 - y10_32 - y23_51 - y2_28 - y13_25 - y1_41 - y24_43 - y1_50 - y16_48 - y35_61 - y9_18 - y28_31 - y17_40 - y6_12 - y9_54 - y50_55 - y27_62 - y6_39 - y39_54 - y54_61 - y4_51 - y32_33 - y24_29 - y4_60 - y16_25 - y24_56 - y5_15 - y1_63 - y38_58 - y5_51 - y21_23 - y30_53 - y8_62 - y20_27 - y30_62 - y31_36 - y23_32 - y20_45 - y23_41 - y2_18 - y4_37 - y20_54 - y4_46 - y23_59 - y13_24 - y1_22 - y43_46 - y16_29 - y1_49 - y17_21 - y5_28 - y28_30 - y9_26 - y15_60 - y26_60 - y8_39 - y19_39 - y30_39 - y42_50 - y50_63 - y19_57 - y20_31 - y12_36 - y31_49 - y4_41 - y13_19 - y53_55 - y1_26 - y13_28 - y4_59 - y16_33 - y5_14 - y46_52 - y9_12 - y57_61 - y9_21 - y49_57 - y7_60 - y8_34 - y0_30 - y0_48 - y11_48 - y12_13 - y20_26 - y30_61 - y31_35 - y12_31 - y31_44 - y23_40 - y4_36 - y12_49 - y13_14 - y45_46 - y1_21 - y1_39 - y15_50 - y7_46 - y15_59 - y19_20 - y27_42 - y11_34 - y42_49 - y11_43 - y19_56 - y20_21 - y12_17 - y20_30 - y52_62 - y4_22 - y53_54 - y45_50 - y16_23 - y34_59 - y3_53 - y3_62 - y26_36 - y38_56 - y7_50 - y18_50 - y11_20 - y8_33 - y11_47 - y4_8 - y4_17 - y12_30 - y25_49 - y10_60 - y25_58 - y4_35 - y34_45 - y22_52 - y34_54 - y34_63 - y45_63 - y7_18 - y18_27 - y26_40 - y7_36 - y8_10 - y7_54 - y18_54 - y27_32 - y11_15 - y29_60 - y8_37 - y30_37 - y11_42 - y41_43 - y33_39 - y12_16 - y4_12 - y44_48 - y25_44 - y22_29 - y2_60 - y25_62 - y22_38 - y3_43 - y37_45 - y15_26 - y7_31 - y7_40 - y18_49 - y8_23 - y19_23 - y11_19 - y40_55 - y21_51 - y6_62 - y10_41 - y33_43 - y52_56 - y25_39 - y37_40 - y14_47 - y7_8
 Subject to
C1: x0+x2-y0_2 <=1 
C2: x0+x3-y0_3 <=1 
C3: x0+x4-y0_4 <=1 
C4: x0+x11 <=1 
C5: x0+x12 <=1 
C6: x0+x13 <=1 
C7: x0+x14 <=1 
C8: x0+x19 <=1 
C9: x0+x20 <=1 
C10: x0+x22-y0_22 <=1 
C11: x0+x28 <=1 
C12: x0+x30-y0_30 <=1 
C13: x0+x35-y0_35 <=1 
C14: x0+x36 <=1 
C15: x0+x38 <=1 
C16: x0+x39 <=1 
C17: x0+x41 <=1 
C18: x0+x43 <=1 
C19: x0+x48-y0_48 <=1 
C20: x0+x50 <=1 
C21: x0+x51 <=1 
C22: x0+x55 <=1 
C23: x0+x56 <=1 
C24: x0+x57 <=1 
C25: x0+x58 <=1 
C26: x0+x59 <=1 
C27: x0+x60-y0_60 <=1 
C28: x0+x62 <=1 
C29: x0+x63 <=1 
C30: x1+x5 <=1 
C31: x1+x7 <=1 
C32: x1+x9 <=1 
C33: x1+x11 <=1 
C34: x1+x12 <=1 
C35: x1+x13-y1_13 <=1 
C36: x1+x15 <=1 
C37: x1+x21-y1_21 <=1 
C38: x1+x22-y1_22 <=1 
C39: x1+x23 <=1 
C40: x1+x24-y1_24 <=1 
C41: x1+x25 <=1 
C42: x1+x26-y1_26 <=1 
C43: x1+x29 <=1 
C44: x1+x31 <=1 
C45: x1+x32 <=1 
C46: x1+x33 <=1 
C47: x1+x35 <=1 
C48: x1+x36 <=1 
C49: x1+x39-y1_39 <=1 
C50: x1+x41-y1_41 <=1 
C51: x1+x42 <=1 
C52: x1+x43 <=1 
C53: x1+x46 <=1 
C54: x1+x49-y1_49 <=1 
C55: x1+x50-y1_50 <=1 
C56: x1+x53 <=1 
C57: x1+x57 <=1 
C58: x1+x63-y1_63 <=1 
C59: x2+x3-y2_3 <=1 
C60: x2+x4 <=1 
C61: x2+x7-y2_7 <=1 
C62: x2+x8-y2_8 <=1 
C63: x2+x11 <=1 
C64: x2+x14 <=1 
C65: x2+x17 <=1 
C66: x2+x18-y2_18 <=1 
C67: x2+x19 <=1 
C68: x2+x22-y2_22 <=1 
C69: x2+x24 <=1 
C70: x2+x25-y2_25 <=1 
C71: x2+x27 <=1 
C72: x2+x28-y2_28 <=1 
C73: x2+x29-y2_29 <=1 
C74: x2+x32-y2_32 <=1 
C75: x2+x33 <=1 
C76: x2+x34-y2_34 <=1 
C77: x2+x36 <=1 
C78: x2+x37 <=1 
C79: x2+x41 <=1 
C80: x2+x42 <=1 
C81: x2+x43 <=1 
C82: x2+x46 <=1 
C83: x2+x47 <=1 
C84: x2+x48-y2_48 <=1 
C85: x2+x52 <=1 
C86: x2+x54 <=1 
C87: x2+x60-y2_60 <=1 
C88: x2+x62 <=1 
C89: x2+x63 <=1 
C90: x3+x4-y3_4 <=1 
C91: x3+x7 <=1 
C92: x3+x8-y3_8 <=1 
C93: x3+x10 <=1 
C94: x3+x12-y3_12 <=1 
C95: x3+x13 <=1 
C96: x3+x14-y3_14 <=1 
C97: x3+x17-y3_17 <=1 
C98: x3+x18 <=1 
C99: x3+x21 <=1 
C100: x3+x23 <=1 
C101: x3+x24 <=1 
C102: x3+x25-y3_25 <=1 
C103: x3+x27-y3_27 <=1 
C104: x3+x30-y3_30 <=1 
C105: x3+x31 <=1 
C106: x3+x32 <=1 
C107: x3+x35-y3_35 <=1 
C108: x3+x36 <=1 
C109: x3+x37 <=1 
C110: x3+x41-y3_41 <=1 
C111: x3+x43-y3_43 <=1 
C112: x3+x45 <=1 
C113: x3+x46 <=1 
C114: x3+x47 <=1 
C115: x3+x48 <=1 
C116: x3+x49 <=1 
C117: x3+x51 <=1 
C118: x3+x53-y3_53 <=1 
C119: x3+x54 <=1 
C120: x3+x55 <=1 
C121: x3+x56 <=1 
C122: x3+x57 <=1 
C123: x3+x58 <=1 
C124: x3+x59-y3_59 <=1 
C125: x3+x61 <=1 
C126: x3+x62-y3_62 <=1 
C127: x3+x63 <=1 
C128: x4+x7 <=1 
C129: x4+x8-y4_8 <=1 
C130: x4+x9-y4_9 <=1 
C131: x4+x10 <=1 
C132: x4+x11 <=1 
C133: x4+x12-y4_12 <=1 
C134: x4+x14 <=1 
C135: x4+x15 <=1 
C136: x4+x17-y4_17 <=1 
C137: x4+x18 <=1 
C138: x4+x21 <=1 
C139: x4+x22-y4_22 <=1 
C140: x4+x24-y4_24 <=1 
C141: x4+x25-y4_25 <=1 
C142: x4+x26 <=1 
C143: x4+x28 <=1 
C144: x4+x29-y4_29 <=1 
C145: x4+x31 <=1 
C146: x4+x32 <=1 
C147: x4+x33-y4_33 <=1 
C148: x4+x34 <=1 
C149: x4+x35-y4_35 <=1 
C150: x4+x36-y4_36 <=1 
C151: x4+x37-y4_37 <=1 
C152: x4+x38 <=1 
C153: x4+x39 <=1 
C154: x4+x41-y4_41 <=1 
C155: x4+x44-y4_44 <=1 
C156: x4+x46-y4_46 <=1 
C157: x4+x48 <=1 
C158: x4+x51-y4_51 <=1 
C159: x4+x53-y4_53 <=1 
C160: x4+x54 <=1 
C161: x4+x55 <=1 
C162: x4+x56 <=1 
C163: x4+x58-y4_58 <=1 
C164: x4+x59-y4_59 <=1 
C165: x4+x60-y4_60 <=1 
C166: x4+x63 <=1 
C167: x5+x6 <=1 
C168: x5+x14-y5_14 <=1 
C169: x5+x15-y5_15 <=1 
C170: x5+x16-y5_16 <=1 
C171: x5+x18 <=1 
C172: x5+x19 <=1 
C173: x5+x20 <=1 
C174: x5+x21-y5_21 <=1 
C175: x5+x22 <=1 
C176: x5+x28-y5_28 <=1 
C177: x5+x30 <=1 
C178: x5+x31 <=1 
C179: x5+x32 <=1 
C180: x5+x33 <=1 
C181: x5+x34 <=1 
C182: x5+x35-y5_35 <=1 
C183: x5+x36 <=1 
C184: x5+x37 <=1 
C185: x5+x38 <=1 
C186: x5+x39-y5_39 <=1 
C187: x5+x41 <=1 
C188: x5+x42 <=1 
C189: x5+x44 <=1 
C190: x5+x45 <=1 
C191: x5+x47 <=1 
C192: x5+x49 <=1 
C193: x5+x50 <=1 
C194: x5+x51-y5_51 <=1 
C195: x5+x52-y5_52 <=1 
C196: x5+x54-y5_54 <=1 
C197: x5+x56 <=1 
C198: x5+x57 <=1 
C199: x5+x58 <=1 
C200: x5+x59-y5_59 <=1 
C201: x5+x60 <=1 
C202: x5+x63 <=1 
C203: x6+x8-y6_8 <=1 
C204: x6+x10 <=1 
C205: x6+x12-y6_12 <=1 
C206: x6+x13 <=1 
C207: x6+x14-y6_14 <=1 
C208: x6+x16 <=1 
C209: x6+x17 <=1 
C210: x6+x19 <=1 
C211: x6+x20 <=1 
C212: x6+x21 <=1 
C213: x6+x22 <=1 
C214: x6+x23 <=1 
C215: x6+x24 <=1 
C216: x6+x31 <=1 
C217: x6+x32 <=1 
C218: x6+x33 <=1 
C219: x6+x34-y6_34 <=1 
C220: x6+x35 <=1 
C221: x6+x36 <=1 
C222: x6+x38 <=1 
C223: x6+x39-y6_39 <=1 
C224: x6+x41 <=1 
C225: x6+x42 <=1 
C226: x6+x45 <=1 
C227: x6+x48-y6_48 <=1 
C228: x6+x50 <=1 
C229: x6+x51-y6_51 <=1 
C230: x6+x53 <=1 
C231: x6+x54-y6_54 <=1 
C232: x6+x59 <=1 
C233: x6+x62-y6_62 <=1 
C234: x6+x63 <=1 
C235: x7+x8-y7_8 <=1 
C236: x7+x9 <=1 
C237: x7+x11-y7_11 <=1 
C238: x7+x17-y7_17 <=1 
C239: x7+x18-y7_18 <=1 
C240: x7+x22 <=1 
C241: x7+x23-y7_23 <=1 
C242: x7+x24 <=1 
C243: x7+x26 <=1 
C244: x7+x30 <=1 
C245: x7+x31-y7_31 <=1 
C246: x7+x32 <=1 
C247: x7+x33 <=1 
C248: x7+x36-y7_36 <=1 
C249: x7+x38-y7_38 <=1 
C250: x7+x40-y7_40 <=1 
C251: x7+x42 <=1 
C252: x7+x44-y7_44 <=1 
C253: x7+x46-y7_46 <=1 
C254: x7+x47 <=1 
C255: x7+x48-y7_48 <=1 
C256: x7+x50-y7_50 <=1 
C257: x7+x53 <=1 
C258: x7+x54-y7_54 <=1 
C259: x7+x60-y7_60 <=1 
C260: x7+x62 <=1 
C261: x8+x9 <=1 
C262: x8+x10-y8_10 <=1 
C263: x8+x11-y8_11 <=1 
C264: x8+x12 <=1 
C265: x8+x15 <=1 
C266: x8+x18-y8_18 <=1 
C267: x8+x23-y8_23 <=1 
C268: x8+x25 <=1 
C269: x8+x27-y8_27 <=1 
C270: x8+x30-y8_30 <=1 
C271: x8+x32 <=1 
C272: x8+x33-y8_33 <=1 
C273: x8+x34-y8_34 <=1 
C274: x8+x35-y8_35 <=1 
C275: x8+x36-y8_36 <=1 
C276: x8+x37-y8_37 <=1 
C277: x8+x38 <=1 
C278: x8+x39-y8_39 <=1 
C279: x8+x41-y8_41 <=1 
C280: x8+x43 <=1 
C281: x8+x44 <=1 
C282: x8+x45-y8_45 <=1 
C283: x8+x47 <=1 
C284: x8+x48 <=1 
C285: x8+x55-y8_55 <=1 
C286: x8+x56 <=1 
C287: x8+x59-y8_59 <=1 
C288: x8+x60 <=1 
C289: x8+x62-y8_62 <=1 
C290: x8+x63 <=1 
C291: x9+x11 <=1 
C292: x9+x12-y9_12 <=1 
C293: x9+x16 <=1 
C294: x9+x18-y9_18 <=1 
C295: x9+x19-y9_19 <=1 
C296: x9+x20 <=1 
C297: x9+x21-y9_21 <=1 
C298: x9+x23 <=1 
C299: x9+x24-y9_24 <=1 
C300: x9+x26-y9_26 <=1 
C301: x9+x28-y9_28 <=1 
C302: x9+x30 <=1 
C303: x9+x36 <=1 
C304: x9+x37-y9_37 <=1 
C305: x9+x38-y9_38 <=1 
C306: x9+x43 <=1 
C307: x9+x44 <=1 
C308: x9+x46 <=1 
C309: x9+x49 <=1 
C310: x9+x50 <=1 
C311: x9+x51 <=1 
C312: x9+x52 <=1 
C313: x9+x53-y9_53 <=1 
C314: x9+x54-y9_54 <=1 
C315: x9+x55 <=1 
C316: x9+x56 <=1 
C317: x9+x58-y9_58 <=1 
C318: x9+x59 <=1 
C319: x9+x60 <=1 
C320: x9+x61-y9_61 <=1 
C321: x9+x62-y9_62 <=1 
C322: x9+x63 <=1 
C323: x10+x12 <=1 
C324: x10+x14 <=1 
C325: x10+x16 <=1 
C326: x10+x18 <=1 
C327: x10+x21 <=1 
C328: x10+x22 <=1 
C329: x10+x23-y10_23 <=1 
C330: x10+x28-y10_28 <=1 
C331: x10+x30-y10_30 <=1 
C332: x10+x31-y10_31 <=1 
C333: x10+x32-y10_32 <=1 
C334: x10+x33-y10_33 <=1 
C335: x10+x34-y10_34 <=1 
C336: x10+x35 <=1 
C337: x10+x37-y10_37 <=1 
C338: x10+x38 <=1 
C339: x10+x39 <=1 
C340: x10+x40-y10_40 <=1 
C341: x10+x41-y10_41 <=1 
C342: x10+x42 <=1 
C343: x10+x43 <=1 
C344: x10+x48 <=1 
C345: x10+x52 <=1 
C346: x10+x53-y10_53 <=1 
C347: x10+x57 <=1 
C348: x10+x58-y10_58 <=1 
C349: x10+x60-y10_60 <=1 
C350: x10+x61 <=1 
C351: x10+x62 <=1 
C352: x10+x63 <=1 
C353: x11+x15-y11_15 <=1 
C354: x11+x17 <=1 
C355: x11+x19-y11_19 <=1 
C356: x11+x20-y11_20 <=1 
C357: x11+x21 <=1 
C358: x11+x23 <=1 
C359: x11+x27-y11_27 <=1 
C360: x11+x28 <=1 
C361: x11+x29 <=1 
C362: x11+x31-y11_31 <=1 
C363: x11+x33 <=1 
C364: x11+x34-y11_34 <=1 
C365: x11+x35 <=1 
C366: x11+x36-y11_36 <=1 
C367: x11+x38 <=1 
C368: x11+x41-y11_41 <=1 
C369: x11+x42-y11_42 <=1 
C370: x11+x43-y11_43 <=1 
C371: x11+x45 <=1 
C372: x11+x47-y11_47 <=1 
C373: x11+x48-y11_48 <=1 
C374: x11+x52 <=1 
C375: x11+x54-y11_54 <=1 
C376: x11+x55 <=1 
C377: x12+x13-y12_13 <=1 
C378: x12+x16-y12_16 <=1 
C379: x12+x17-y12_17 <=1 
C380: x12+x19-y12_19 <=1 
C381: x12+x20 <=1 
C382: x12+x21 <=1 
C383: x12+x22 <=1 
C384: x12+x23 <=1 
C385: x12+x24 <=1 
C386: x12+x28 <=1 
C387: x12+x29 <=1 
C388: x12+x30-y12_30 <=1 
C389: x12+x31-y12_31 <=1 
C390: x12+x33 <=1 
C391: x12+x35 <=1 
C392: x12+x36-y12_36 <=1 
C393: x12+x39 <=1 
C394: x12+x40 <=1 
C395: x12+x43 <=1 
C396: x12+x44 <=1 
C397: x12+x47-y12_47 <=1 
C398: x12+x49-y12_49 <=1 
C399: x12+x50 <=1 
C400: x12+x51 <=1 
C401: x12+x52-y12_52 <=1 
C402: x12+x54 <=1 
C403: x12+x55 <=1 
C404: x12+x56-y12_56 <=1 
C405: x12+x58 <=1 
C406: x12+x59 <=1 
C407: x12+x61-y12_61 <=1 
C408: x12+x62 <=1 
C409: x12+x63-y12_63 <=1 
C410: x13+x14-y13_14 <=1 
C411: x13+x15 <=1 
C412: x13+x16 <=1 
C413: x13+x17 <=1 
C414: x13+x18 <=1 
C415: x13+x19-y13_19 <=1 
C416: x13+x20 <=1 
C417: x13+x21 <=1 
C418: x13+x22-y13_22 <=1 
C419: x13+x24-y13_24 <=1 
C420: x13+x25-y13_25 <=1 
C421: x13+x26 <=1 
C422: x13+x27 <=1 
C423: x13+x28-y13_28 <=1 
C424: x13+x29 <=1 
C425: x13+x30 <=1 
C426: x13+x32 <=1 
C427: x13+x33 <=1 
C428: x13+x37 <=1 
C429: x13+x39-y13_39 <=1 
C430: x13+x40-y13_40 <=1 
C431: x13+x43 <=1 
C432: x13+x44 <=1 
C433: x13+x45 <=1 
C434: x13+x48-y13_48 <=1 
C435: x13+x50-y13_50 <=1 
C436: x13+x51-y13_51 <=1 
C437: x13+x53 <=1 
C438: x13+x57-y13_57 <=1 
C439: x13+x59 <=1 
C440: x13+x62 <=1 
C441: x13+x63 <=1 
C442: x14+x16-y14_16 <=1 
C443: x14+x17-y14_17 <=1 
C444: x14+x18-y14_18 <=1 
C445: x14+x19-y14_19 <=1 
C446: x14+x20 <=1 
C447: x14+x21 <=1 
C448: x14+x22-y14_22 <=1 
C449: x14+x23 <=1 
C450: x14+x26-y14_26 <=1 
C451: x14+x27 <=1 
C452: x14+x28-y14_28 <=1 
C453: x14+x29 <=1 
C454: x14+x30-y14_30 <=1 
C455: x14+x31 <=1 
C456: x14+x32 <=1 
C457: x14+x34 <=1 
C458: x14+x36-y14_36 <=1 
C459: x14+x37-y14_37 <=1 
C460: x14+x38 <=1 
C461: x14+x40 <=1 
C462: x14+x42-y14_42 <=1 
C463: x14+x43 <=1 
C464: x14+x44 <=1 
C465: x14+x45-y14_45 <=1 
C466: x14+x47-y14_47 <=1 
C467: x14+x50 <=1 
C468: x14+x54 <=1 
C469: x14+x55 <=1 
C470: x14+x56 <=1 
C471: x14+x58 <=1 
C472: x14+x60-y14_60 <=1 
C473: x14+x61 <=1 
C474: x15+x18-y15_18 <=1 
C475: x15+x19 <=1 
C476: x15+x20-y15_20 <=1 
C477: x15+x21-y15_21 <=1 
C478: x15+x25-y15_25 <=1 
C479: x15+x26-y15_26 <=1 
C480: x15+x27 <=1 
C481: x15+x28 <=1 
C482: x15+x29-y15_29 <=1 
C483: x15+x30 <=1 
C484: x15+x31 <=1 
C485: x15+x34 <=1 
C486: x15+x35 <=1 
C487: x15+x37 <=1 
C488: x15+x38 <=1 
C489: x15+x41 <=1 
C490: x15+x43 <=1 
C491: x15+x46 <=1 
C492: x15+x47 <=1 
C493: x15+x48 <=1 
C494: x15+x50-y15_50 <=1 
C495: x15+x54 <=1 
C496: x15+x55 <=1 
C497: x15+x57-y15_57 <=1 
C498: x15+x58 <=1 
C499: x15+x59-y15_59 <=1 
C500: x15+x60-y15_60 <=1 
C501: x15+x61-y15_61 <=1 
C502: x15+x62-y15_62 <=1 
C503: x16+x17 <=1 
C504: x16+x18 <=1 
C505: x16+x22-y16_22 <=1 
C506: x16+x23-y16_23 <=1 
C507: x16+x24 <=1 
C508: x16+x25-y16_25 <=1 
C509: x16+x27 <=1 
C510: x16+x29-y16_29 <=1 
C511: x16+x30-y16_30 <=1 
C512: x16+x33-y16_33 <=1 
C513: x16+x34 <=1 
C514: x16+x36 <=1 
C515: x16+x37-y16_37 <=1 
C516: x16+x39 <=1 
C517: x16+x41 <=1 
C518: x16+x42 <=1 
C519: x16+x44 <=1 
C520: x16+x46 <=1 
C521: x16+x47 <=1 
C522: x16+x48-y16_48 <=1 
C523: x16+x49-y16_49 <=1 
C524: x16+x51 <=1 
C525: x16+x55 <=1 
C526: x16+x56 <=1 
C527: x16+x57 <=1 
C528: x16+x58 <=1 
C529: x16+x60 <=1 
C530: x16+x63-y16_63 <=1 
C531: x17+x19 <=1 
C532: x17+x20-y17_20 <=1 
C533: x17+x21-y17_21 <=1 
C534: x17+x22 <=1 
C535: x17+x23 <=1 
C536: x17+x24 <=1 
C537: x17+x29-y17_29 <=1 
C538: x17+x31 <=1 
C539: x17+x32-y17_32 <=1 
C540: x17+x33 <=1 
C541: x17+x35 <=1 
C542: x17+x36-y17_36 <=1 
C543: x17+x39 <=1 
C544: x17+x40-y17_40 <=1 
C545: x17+x41 <=1 
C546: x17+x43 <=1 
C547: x17+x44-y17_44 <=1 
C548: x17+x45 <=1 
C549: x17+x47-y17_47 <=1 
C550: x17+x49 <=1 
C551: x17+x50-y17_50 <=1 
C552: x17+x51 <=1 
C553: x17+x54 <=1 
C554: x17+x57 <=1 
C555: x17+x59 <=1 
C556: x17+x60 <=1 
C557: x17+x61-y17_61 <=1 
C558: x18+x20-y18_20 <=1 
C559: x18+x21-y18_21 <=1 
C560: x18+x22 <=1 
C561: x18+x23 <=1 
C562: x18+x24 <=1 
C563: x18+x26 <=1 
C564: x18+x27-y18_27 <=1 
C565: x18+x28-y18_28 <=1 
C566: x18+x29 <=1 
C567: x18+x30-y18_30 <=1 
C568: x18+x31 <=1 
C569: x18+x33 <=1 
C570: x18+x34-y18_34 <=1 
C571: x18+x35-y18_35 <=1 
C572: x18+x36 <=1 
C573: x18+x37-y18_37 <=1 
C574: x18+x38-y18_38 <=1 
C575: x18+x42-y18_42 <=1 
C576: x18+x44-y18_44 <=1 
C577: x18+x46 <=1 
C578: x18+x48 <=1 
C579: x18+x49-y18_49 <=1 
C580: x18+x50-y18_50 <=1 
C581: x18+x51 <=1 
C582: x18+x53 <=1 
C583: x18+x54-y18_54 <=1 
C584: x18+x57-y18_57 <=1 
C585: x18+x58 <=1 
C586: x18+x61-y18_61 <=1 
C587: x18+x63 <=1 
C588: x19+x20-y19_20 <=1 
C589: x19+x21 <=1 
C590: x19+x23-y19_23 <=1 
C591: x19+x27 <=1 
C592: x19+x31-y19_31 <=1 
C593: x19+x32 <=1 
C594: x19+x33 <=1 
C595: x19+x38 <=1 
C596: x19+x39-y19_39 <=1 
C597: x19+x40-y19_40 <=1 
C598: x19+x43 <=1 
C599: x19+x44 <=1 
C600: x19+x48 <=1 
C601: x19+x52 <=1 
C602: x19+x54-y19_54 <=1 
C603: x19+x55 <=1 
C604: x19+x56-y19_56 <=1 
C605: x19+x57-y19_57 <=1 
C606: x19+x60-y19_60 <=1 
C607: x19+x63-y19_63 <=1 
C608: x20+x21-y20_21 <=1 
C609: x20+x24-y20_24 <=1 
C610: x20+x25 <=1 
C611: x20+x26-y20_26 <=1 
C612: x20+x27-y20_27 <=1 
C613: x20+x29-y20_29 <=1 
C614: x20+x30-y20_30 <=1 
C615: x20+x31-y20_31 <=1 
C616: x20+x32 <=1 
C617: x20+x34-y20_34 <=1 
C618: x20+x38 <=1 
C619: x20+x40 <=1 
C620: x20+x42 <=1 
C621: x20+x44 <=1 
C622: x20+x45-y20_45 <=1 
C623: x20+x46 <=1 
C624: x20+x50 <=1 
C625: x20+x52 <=1 
C626: x20+x53-y20_53 <=1 
C627: x20+x54-y20_54 <=1 
C628: x20+x56 <=1 
C629: x20+x57 <=1 
C630: x20+x60 <=1 
C631: x20+x61-y20_61 <=1 
C632: x20+x62-y20_62 <=1 
C633: x21+x22 <=1 
C634: x21+x23-y21_23 <=1 
C635: x21+x24-y21_24 <=1 
C636: x21+x25-y21_25 <=1 
C637: x21+x26 <=1 
C638: x21+x27 <=1 
C639: x21+x29 <=1 
C640: x21+x31 <=1 
C641: x21+x33 <=1 
C642: x21+x34 <=1 
C643: x21+x35-y21_35 <=1 
C644: x21+x36 <=1 
C645: x21+x37-y21_37 <=1 
C646: x21+x40-y21_40 <=1 
C647: x21+x41-y21_41 <=1 
C648: x21+x44 <=1 
C649: x21+x45-y21_45 <=1 
C650: x21+x46 <=1 
C651: x21+x47 <=1 
C652: x21+x48 <=1 
C653: x21+x50-y21_50 <=1 
C654: x21+x51-y21_51 <=1 
C655: x21+x53-y21_53 <=1 
C656: x21+x54 <=1 
C657: x21+x55-y21_55 <=1 
C658: x21+x57 <=1 
C659: x21+x58-y21_58 <=1 
C660: x21+x59-y21_59 <=1 
C661: x21+x61 <=1 
C662: x21+x62-y21_62 <=1 
C663: x22+x25 <=1 
C664: x22+x26-y22_26 <=1 
C665: x22+x27 <=1 
C666: x22+x28 <=1 
C667: x22+x29-y22_29 <=1 
C668: x22+x30-y22_30 <=1 
C669: x22+x33 <=1 
C670: x22+x34 <=1 
C671: x22+x35-y22_35 <=1 
C672: x22+x37 <=1 
C673: x22+x38-y22_38 <=1 
C674: x22+x40 <=1 
C675: x22+x41 <=1 
C676: x22+x44 <=1 
C677: x22+x46 <=1 
C678: x22+x49-y22_49 <=1 
C679: x22+x50 <=1 
C680: x22+x52-y22_52 <=1 
C681: x22+x55-y22_55 <=1 
C682: x22+x56 <=1 
C683: x22+x57 <=1 
C684: x22+x58 <=1 
C685: x22+x61 <=1 
C686: x22+x62 <=1 
C687: x23+x24 <=1 
C688: x23+x25 <=1 
C689: x23+x28 <=1 
C690: x23+x29-y23_29 <=1 
C691: x23+x30 <=1 
C692: x23+x31 <=1 
C693: x23+x32-y23_32 <=1 
C694: x23+x34-y23_34 <=1 
C695: x23+x35 <=1 
C696: x23+x37-y23_37 <=1 
C697: x23+x38 <=1 
C698: x23+x39-y23_39 <=1 
C699: x23+x40-y23_40 <=1 
C700: x23+x41-y23_41 <=1 
C701: x23+x42-y23_42 <=1 
C702: x23+x44 <=1 
C703: x23+x46 <=1 
C704: x23+x47 <=1 
C705: x23+x50 <=1 
C706: x23+x51-y23_51 <=1 
C707: x23+x52-y23_52 <=1 
C708: x23+x53-y23_53 <=1 
C709: x23+x58 <=1 
C710: x23+x59-y23_59 <=1 
C711: x23+x60 <=1 
C712: x23+x62-y23_62 <=1 
C713: x23+x63 <=1 
C714: x24+x25 <=1 
C715: x24+x28 <=1 
C716: x24+x29-y24_29 <=1 
C717: x24+x30-y24_30 <=1 
C718: x24+x32 <=1 
C719: x24+x34 <=1 
C720: x24+x35-y24_35 <=1 
C721: x24+x37 <=1 
C722: x24+x38 <=1 
C723: x24+x39 <=1 
C724: x24+x40-y24_40 <=1 
C725: x24+x42 <=1 
C726: x24+x43-y24_43 <=1 
C727: x24+x46-y24_46 <=1 
C728: x24+x48-y24_48 <=1 
C729: x24+x49-y24_49 <=1 
C730: x24+x50 <=1 
C731: x24+x54-y24_54 <=1 
C732: x24+x56-y24_56 <=1 
C733: x24+x57-y24_57 <=1 
C734: x25+x26 <=1 
C735: x25+x27-y25_27 <=1 
C736: x25+x29-y25_29 <=1 
C737: x25+x31 <=1 
C738: x25+x32-y25_32 <=1 
C739: x25+x33-y25_33 <=1 
C740: x25+x35-y25_35 <=1 
C741: x25+x38-y25_38 <=1 
C742: x25+x39-y25_39 <=1 
C743: x25+x40-y25_40 <=1 
C744: x25+x41-y25_41 <=1 
C745: x25+x42 <=1 
C746: x25+x43-y25_43 <=1 
C747: x25+x44-y25_44 <=1 
C748: x25+x45-y25_45 <=1 
C749: x25+x46-y25_46 <=1 
C750: x25+x47 <=1 
C751: x25+x49-y25_49 <=1 
C752: x25+x51-y25_51 <=1 
C753: x25+x56-y25_56 <=1 
C754: x25+x58-y25_58 <=1 
C755: x25+x59-y25_59 <=1 
C756: x25+x61-y25_61 <=1 
C757: x25+x62-y25_62 <=1 
C758: x25+x63 <=1 
C759: x26+x30-y26_30 <=1 
C760: x26+x31 <=1 
C761: x26+x32 <=1 
C762: x26+x33 <=1 
C763: x26+x35 <=1 
C764: x26+x36-y26_36 <=1 
C765: x26+x38 <=1 
C766: x26+x39-y26_39 <=1 
C767: x26+x40-y26_40 <=1 
C768: x26+x43 <=1 
C769: x26+x44 <=1 
C770: x26+x46-y26_46 <=1 
C771: x26+x47 <=1 
C772: x26+x48-y26_48 <=1 
C773: x26+x52 <=1 
C774: x26+x55 <=1 
C775: x26+x60-y26_60 <=1 
C776: x26+x63 <=1 
C777: x27+x30-y27_30 <=1 
C778: x27+x32-y27_32 <=1 
C779: x27+x34 <=1 
C780: x27+x35 <=1 
C781: x27+x36 <=1 
C782: x27+x37 <=1 
C783: x27+x38 <=1 
C784: x27+x40-y27_40 <=1 
C785: x27+x41 <=1 
C786: x27+x42-y27_42 <=1 
C787: x27+x44 <=1 
C788: x27+x53 <=1 
C789: x27+x54-y27_54 <=1 
C790: x27+x55-y27_55 <=1 
C791: x27+x57 <=1 
C792: x27+x58-y27_58 <=1 
C793: x27+x60-y27_60 <=1 
C794: x27+x62-y27_62 <=1 
C795: x28+x30-y28_30 <=1 
C796: x28+x31-y28_31 <=1 
C797: x28+x32-y28_32 <=1 
C798: x28+x33-y28_33 <=1 
C799: x28+x34-y28_34 <=1 
C800: x28+x35 <=1 
C801: x28+x36 <=1 
C802: x28+x38 <=1 
C803: x28+x42-y28_42 <=1 
C804: x28+x43-y28_43 <=1 
C805: x28+x44 <=1 
C806: x28+x45-y28_45 <=1 
C807: x28+x53-y28_53 <=1 
C808: x28+x54-y28_54 <=1 
C809: x28+x55 <=1 
C810: x28+x58-y28_58 <=1 
C811: x28+x59 <=1 
C812: x28+x60 <=1 
C813: x28+x62-y28_62 <=1 
C814: x28+x63-y28_63 <=1 
C815: x29+x34 <=1 
C816: x29+x35-y29_35 <=1 
C817: x29+x40 <=1 
C818: x29+x42-y29_42 <=1 
C819: x29+x43-y29_43 <=1 
C820: x29+x46 <=1 
C821: x29+x48-y29_48 <=1 
C822: x29+x49 <=1 
C823: x29+x51 <=1 
C824: x29+x52 <=1 
C825: x29+x53 <=1 
C826: x29+x54-y29_54 <=1 
C827: x29+x55 <=1 
C828: x29+x56 <=1 
C829: x29+x58 <=1 
C830: x29+x59-y29_59 <=1 
C831: x29+x60-y29_60 <=1 
C832: x29+x62-y29_62 <=1 
C833: x29+x63 <=1 
C834: x30+x31-y30_31 <=1 
C835: x30+x32 <=1 
C836: x30+x37-y30_37 <=1 
C837: x30+x39-y30_39 <=1 
C838: x30+x40 <=1 
C839: x30+x42 <=1 
C840: x30+x46 <=1 
C841: x30+x50 <=1 
C842: x30+x51 <=1 
C843: x30+x52 <=1 
C844: x30+x53-y30_53 <=1 
C845: x30+x54-y30_54 <=1 
C846: x30+x55 <=1 
C847: x30+x56 <=1 
C848: x30+x58 <=1 
C849: x30+x61-y30_61 <=1 
C850: x30+x62-y30_62 <=1 
C851: x30+x63-y30_63 <=1 
C852: x31+x34-y31_34 <=1 
C853: x31+x35-y31_35 <=1 
C854: x31+x36-y31_36 <=1 
C855: x31+x38-y31_38 <=1 
C856: x31+x40 <=1 
C857: x31+x41 <=1 
C858: x31+x42-y31_42 <=1 
C859: x31+x44-y31_44 <=1 
C860: x31+x45 <=1 
C861: x31+x46-y31_46 <=1 
C862: x31+x49-y31_49 <=1 
C863: x31+x52 <=1 
C864: x31+x53 <=1 
C865: x31+x55-y31_55 <=1 
C866: x31+x56 <=1 
C867: x31+x57-y31_57 <=1 
C868: x31+x60 <=1 
C869: x31+x63 <=1 
C870: x32+x33-y32_33 <=1 
C871: x32+x34-y32_34 <=1 
C872: x32+x35-y32_35 <=1 
C873: x32+x37 <=1 
C874: x32+x39 <=1 
C875: x32+x41 <=1 
C876: x32+x42 <=1 
C877: x32+x43 <=1 
C878: x32+x44-y32_44 <=1 
C879: x32+x45-y32_45 <=1 
C880: x32+x46 <=1 
C881: x32+x49-y32_49 <=1 
C882: x32+x50-y32_50 <=1 
C883: x32+x52-y32_52 <=1 
C884: x32+x53-y32_53 <=1 
C885: x32+x54-y32_54 <=1 
C886: x32+x55-y32_55 <=1 
C887: x32+x56 <=1 
C888: x32+x60 <=1 
C889: x32+x62-y32_62 <=1 
C890: x32+x63 <=1 
C891: x33+x35 <=1 
C892: x33+x38 <=1 
C893: x33+x39-y33_39 <=1 
C894: x33+x42-y33_42 <=1 
C895: x33+x43-y33_43 <=1 
C896: x33+x44-y33_44 <=1 
C897: x33+x45 <=1 
C898: x33+x46-y33_46 <=1 
C899: x33+x54 <=1 
C900: x33+x55 <=1 
C901: x33+x58 <=1 
C902: x33+x60 <=1 
C903: x34+x35 <=1 
C904: x34+x37-y34_37 <=1 
C905: x34+x39-y34_39 <=1 
C906: x34+x44 <=1 
C907: x34+x45-y34_45 <=1 
C908: x34+x46 <=1 
C909: x34+x47 <=1 
C910: x34+x48-y34_48 <=1 
C911: x34+x50 <=1 
C912: x34+x51-y34_51 <=1 
C913: x34+x52-y34_52 <=1 
C914: x34+x53 <=1 
C915: x34+x54-y34_54 <=1 
C916: x34+x55 <=1 
C917: x34+x58-y34_58 <=1 
C918: x34+x59-y34_59 <=1 
C919: x34+x62 <=1 
C920: x34+x63-y34_63 <=1 
C921: x35+x38 <=1 
C922: x35+x41-y35_41 <=1 
C923: x35+x42 <=1 
C924: x35+x43 <=1 
C925: x35+x45 <=1 
C926: x35+x46-y35_46 <=1 
C927: x35+x48 <=1 
C928: x35+x49-y35_49 <=1 
C929: x35+x51 <=1 
C930: x35+x52 <=1 
C931: x35+x54-y35_54 <=1 
C932: x35+x55 <=1 
C933: x35+x56 <=1 
C934: x35+x57-y35_57 <=1 
C935: x35+x59 <=1 
C936: x35+x61-y35_61 <=1 
C937: x35+x63-y35_63 <=1 
C938: x36+x37 <=1 
C939: x36+x38 <=1 
C940: x36+x40 <=1 
C941: x36+x41-y36_41 <=1 
C942: x36+x42 <=1 
C943: x36+x46 <=1 
C944: x36+x47 <=1 
C945: x36+x49 <=1 
C946: x36+x50-y36_50 <=1 
C947: x36+x51 <=1 
C948: x36+x52-y36_52 <=1 
C949: x36+x55 <=1 
C950: x36+x56 <=1 
C951: x36+x59 <=1 
C952: x36+x60 <=1 
C953: x36+x61-y36_61 <=1 
C954: x36+x62 <=1 
C955: x36+x63 <=1 
C956: x37+x39-y37_39 <=1 
C957: x37+x40-y37_40 <=1 
C958: x37+x43-y37_43 <=1 
C959: x37+x44 <=1 
C960: x37+x45-y37_45 <=1 
C961: x37+x46 <=1 
C962: x37+x47-y37_47 <=1 
C963: x37+x49 <=1 
C964: x37+x52 <=1 
C965: x37+x57 <=1 
C966: x37+x61-y37_61 <=1 
C967: x37+x62-y37_62 <=1 
C968: x38+x41 <=1 
C969: x38+x44 <=1 
C970: x38+x45 <=1 
C971: x38+x46-y38_46 <=1 
C972: x38+x47 <=1 
C973: x38+x48 <=1 
C974: x38+x50-y38_50 <=1 
C975: x38+x52 <=1 
C976: x38+x55-y38_55 <=1 
C977: x38+x56-y38_56 <=1 
C978: x38+x58-y38_58 <=1 
C979: x38+x60 <=1 
C980: x38+x61 <=1 
C981: x38+x62 <=1 
C982: x38+x63-y38_63 <=1 
C983: x39+x43-y39_43 <=1 
C984: x39+x46 <=1 
C985: x39+x47 <=1 
C986: x39+x48 <=1 
C987: x39+x49 <=1 
C988: x39+x50-y39_50 <=1 
C989: x39+x54-y39_54 <=1 
C990: x39+x55 <=1 
C991: x39+x57-y39_57 <=1 
C992: x39+x60-y39_60 <=1 
C993: x39+x61-y39_61 <=1 
C994: x39+x63 <=1 
C995: x40+x41-y40_41 <=1 
C996: x40+x42-y40_42 <=1 
C997: x40+x43-y40_43 <=1 
C998: x40+x44-y40_44 <=1 
C999: x40+x45-y40_45 <=1 
C1000: x40+x48-y40_48 <=1 
C1001: x40+x50 <=1 
C1002: x40+x51 <=1 
C1003: x40+x52 <=1 
C1004: x40+x53-y40_53 <=1 
C1005: x40+x54 <=1 
C1006: x40+x55-y40_55 <=1 
C1007: x40+x60 <=1 
C1008: x40+x61-y40_61 <=1 
C1009: x40+x62 <=1 
C1010: x40+x63-y40_63 <=1 
C1011: x41+x43-y41_43 <=1 
C1012: x41+x44-y41_44 <=1 
C1013: x41+x45-y41_45 <=1 
C1014: x41+x46 <=1 
C1015: x41+x48 <=1 
C1016: x41+x49 <=1 
C1017: x41+x53 <=1 
C1018: x41+x54 <=1 
C1019: x41+x55 <=1 
C1020: x41+x57 <=1 
C1021: x41+x60 <=1 
C1022: x42+x43 <=1 
C1023: x42+x44 <=1 
C1024: x42+x48 <=1 
C1025: x42+x49-y42_49 <=1 
C1026: x42+x50-y42_50 <=1 
C1027: x42+x53-y42_53 <=1 
C1028: x42+x56 <=1 
C1029: x42+x60 <=1 
C1030: x42+x62 <=1 
C1031: x43+x44 <=1 
C1032: x43+x45 <=1 
C1033: x43+x46-y43_46 <=1 
C1034: x43+x47 <=1 
C1035: x43+x48 <=1 
C1036: x43+x49 <=1 
C1037: x43+x51 <=1 
C1038: x43+x52-y43_52 <=1 
C1039: x43+x53-y43_53 <=1 
C1040: x43+x54 <=1 
C1041: x43+x55 <=1 
C1042: x43+x57 <=1 
C1043: x43+x58 <=1 
C1044: x43+x59-y43_59 <=1 
C1045: x43+x60-y43_60 <=1 
C1046: x43+x61-y43_61 <=1 
C1047: x44+x45 <=1 
C1048: x44+x46 <=1 
C1049: x44+x48-y44_48 <=1 
C1050: x44+x50-y44_50 <=1 
C1051: x44+x53 <=1 
C1052: x44+x55 <=1 
C1053: x44+x56 <=1 
C1054: x44+x59-y44_59 <=1 
C1055: x44+x61 <=1 
C1056: x44+x62 <=1 
C1057: x44+x63 <=1 
C1058: x45+x46-y45_46 <=1 
C1059: x45+x47 <=1 
C1060: x45+x48-y45_48 <=1 
C1061: x45+x49 <=1 
C1062: x45+x50-y45_50 <=1 
C1063: x45+x53-y45_53 <=1 
C1064: x45+x55 <=1 
C1065: x45+x56 <=1 
C1066: x45+x57-y45_57 <=1 
C1067: x45+x59 <=1 
C1068: x45+x60 <=1 
C1069: x45+x62-y45_62 <=1 
C1070: x45+x63-y45_63 <=1 
C1071: x46+x47 <=1 
C1072: x46+x48 <=1 
C1073: x46+x49-y46_49 <=1 
C1074: x46+x52-y46_52 <=1 
C1075: x46+x53 <=1 
C1076: x46+x58 <=1 
C1077: x46+x60 <=1 
C1078: x46+x62 <=1 
C1079: x47+x48-y47_48 <=1 
C1080: x47+x49-y47_49 <=1 
C1081: x47+x50-y47_50 <=1 
C1082: x47+x51 <=1 
C1083: x47+x53-y47_53 <=1 
C1084: x47+x54 <=1 
C1085: x47+x55 <=1 
C1086: x47+x57 <=1 
C1087: x47+x58-y47_58 <=1 
C1088: x47+x59 <=1 
C1089: x47+x60-y47_60 <=1 
C1090: x47+x61 <=1 
C1091: x47+x62-y47_62 <=1 
C1092: x47+x63 <=1 
C1093: x48+x50 <=1 
C1094: x48+x52 <=1 
C1095: x48+x53-y48_53 <=1 
C1096: x48+x55 <=1 
C1097: x48+x58 <=1 
C1098: x48+x63 <=1 
C1099: x49+x50-y49_50 <=1 
C1100: x49+x53 <=1 
C1101: x49+x54-y49_54 <=1 
C1102: x49+x55-y49_55 <=1 
C1103: x49+x57-y49_57 <=1 
C1104: x49+x58 <=1 
C1105: x49+x59-y49_59 <=1 
C1106: x49+x60 <=1 
C1107: x49+x61 <=1 
C1108: x49+x62 <=1 
C1109: x50+x51-y50_51 <=1 
C1110: x50+x52-y50_52 <=1 
C1111: x50+x55-y50_55 <=1 
C1112: x50+x59 <=1 
C1113: x50+x61 <=1 
C1114: x50+x62-y50_62 <=1 
C1115: x50+x63-y50_63 <=1 
C1116: x51+x52-y51_52 <=1 
C1117: x51+x56-y51_56 <=1 
C1118: x51+x58-y51_58 <=1 
C1119: x51+x59 <=1 
C1120: x51+x61 <=1 
C1121: x52+x55 <=1 
C1122: x52+x56-y52_56 <=1 
C1123: x52+x61 <=1 
C1124: x52+x62-y52_62 <=1 
C1125: x52+x63-y52_63 <=1 
C1126: x53+x54-y53_54 <=1 
C1127: x53+x55-y53_55 <=1 
C1128: x53+x56 <=1 
C1129: x53+x57 <=1 
C1130: x53+x59 <=1 
C1131: x53+x61-y53_61 <=1 
C1132: x53+x62-y53_62 <=1 
C1133: x54+x55 <=1 
C1134: x54+x56 <=1 
C1135: x54+x57 <=1 
C1136: x54+x58-y54_58 <=1 
C1137: x54+x61-y54_61 <=1 
C1138: x54+x62-y54_62 <=1 
C1139: x55+x56-y55_56 <=1 
C1140: x55+x58 <=1 
C1141: x55+x60-y55_60 <=1 
C1142: x55+x62 <=1 
C1143: x56+x59 <=1 
C1144: x56+x60 <=1 
C1145: x56+x62-y56_62 <=1 
C1146: x56+x63 <=1 
C1147: x57+x58 <=1 
C1148: x57+x59-y57_59 <=1 
C1149: x57+x60 <=1 
C1150: x57+x61-y57_61 <=1 
C1151: x57+x62 <=1 
C1152: x57+x63 <=1 
C1153: x58+x59 <=1 
C1154: x58+x61 <=1 
C1155: x60+x62 <=1 
C1156: x60+x63 <=1 
C1157: x61+x62-y61_62 <=1 

binary
x0
x1
x2
x3
x4
x5
x6
x7
x8
x9
x10
x11
x12
x13
x14
x15
x16
x17
x18
x19
x20
x21
x22
x23
x24
x25
x26
x27
x28
x29
x30
x31
x32
x33
x34
x35
x36
x37
x38
x39
x40
x41
x42
x43
x44
x45
x46
x47
x48
x49
x50
x51
x52
x53
x54
x55
x56
x57
x58
x59
x60
x61
x62
x63
