problem_generation/data/GISP/train/er_n=64_m=1157_p=0.60_SET2_setparam=100.00_alpha=0.50_115.sol
objective value:                                 1277
x1                                                  1 	(obj:100)
x8                                                  1 	(obj:100)
x19                                                 1 	(obj:100)
x20                                                 1 	(obj:100)
x26                                                 1 	(obj:100)
x28                                                 1 	(obj:100)
x37                                                 1 	(obj:100)
x39                                                 1 	(obj:100)
x41                                                 1 	(obj:100)
x45                                                 1 	(obj:100)
x51                                                 1 	(obj:100)
x58                                                 1 	(obj:100)
x62                                                 1 	(obj:100)
y26_39                                              1 	(obj:-1)
y28_58                                              1 	(obj:-1)
y28_62                                              1 	(obj:-1)
y20_62                                              1 	(obj:-1)
y51_58                                              1 	(obj:-1)
y8_41                                               1 	(obj:-1)
y45_62                                              1 	(obj:-1)
y8_45                                               1 	(obj:-1)
y37_62                                              1 	(obj:-1)
y37_39                                              1 	(obj:-1)
y41_45                                              1 	(obj:-1)
y28_45                                              1 	(obj:-1)
y1_41                                               1 	(obj:-1)
y8_62                                               1 	(obj:-1)
y20_45                                              1 	(obj:-1)
y8_39                                               1 	(obj:-1)
y19_39                                              1 	(obj:-1)
y1_26                                               1 	(obj:-1)
y20_26                                              1 	(obj:-1)
y1_39                                               1 	(obj:-1)
y19_20                                              1 	(obj:-1)
y8_37                                               1 	(obj:-1)
y37_45                                              1 	(obj:-1)
